p tw 70 105
1 2
1 70
1 67
2 13
2 20
13 24
13 28
24 35
24 53
35 46
35 15
46 57
46 33
57 68
57 8
68 69
68 44
69 70
69 61
70 3
3 4
3 12
4 5
4 31
5 6
5 54
6 7
6 38
7 8
7 26
8 9
9 10
9 19
10 11
10 58
11 12
11 50
12 14
14 15
14 23
15 16
16 17
16 39
17 18
17 47
18 19
18 63
19 20
20 21
21 22
21 36
22 23
22 43
23 25
25 26
25 65
26 27
27 28
27 48
28 29
29 30
29 59
30 31
30 42
31 32
32 33
32 64
33 34
34 36
34 49
36 37
37 38
37 60
38 39
39 40
40 41
40 67
41 42
41 51
42 43
43 44
44 45
45 47
45 55
47 48
48 49
49 50
50 51
51 52
52 53
52 62
53 54
54 55
55 56
56 58
56 66
58 59
59 60
60 61
61 62
62 63
63 64
64 65
65 66
66 67
